data/rand/rand_071.gr
p tdp 15 74
1 3
1 4
1 7
1 8
1 9
1 10
1 11
1 12
1 13
1 14
2 4
2 5
2 6
2 7
2 9
2 11
2 12
2 14
3 4
3 5
3 6
3 8
3 9
3 12
3 14
4 5
4 6
4 8
4 9
4 10
4 14
5 6
5 7
5 8
5 9
5 10
5 11
5 13
5 14
5 15
6 7
6 9
6 10
6 11
6 12
6 14
7 8
7 11
7 12
7 13
7 14
7 15
8 9
8 10
8 11
8 12
8 13
8 14
9 10
9 11
9 12
9 13
9 14
10 11
10 12
10 13
11 12
11 14
12 13
12 14
12 15
13 14
13 15
14 15
