solutions/best/rand/rand_071.sol
12
0
1
9
2
4
5
13
14
13
9
8
6
11
12
7
